c Staircase at least one
p cnf 434 898
-5 203 0
-4 203 0
-203 5 4 0
-203 202 0
-3 202 0
-202 203 3 0
-202 201 0
-2 201 0
-201 202 2 0
-10 206 0
-9 206 0
-206 10 9 0
-206 205 0
-8 205 0
-205 206 8 0
-205 204 0
-7 204 0
-204 205 7 0
-15 209 0
-14 209 0
-209 15 14 0
-209 208 0
-13 208 0
-208 209 13 0
-208 207 0
-12 207 0
-207 208 12 0
-20 212 0
-19 212 0
-212 20 19 0
-212 211 0
-18 211 0
-211 212 18 0
-211 210 0
-17 210 0
-210 211 17 0
-25 215 0
-24 215 0
-215 25 24 0
-215 214 0
-23 214 0
-214 215 23 0
-214 213 0
-22 213 0
-213 214 22 0
-30 218 0
-29 218 0
-218 30 29 0
-218 217 0
-28 217 0
-217 218 28 0
-217 216 0
-27 216 0
-216 217 27 0
-35 221 0
-34 221 0
-221 35 34 0
-221 220 0
-33 220 0
-220 221 33 0
-220 219 0
-32 219 0
-219 220 32 0
-40 224 0
-39 224 0
-224 40 39 0
-224 223 0
-38 223 0
-223 224 38 0
-223 222 0
-37 222 0
-222 223 37 0
-45 227 0
-44 227 0
-227 45 44 0
-227 226 0
-43 226 0
-226 227 43 0
-226 225 0
-42 225 0
-225 226 42 0
-50 230 0
-49 230 0
-230 50 49 0
-230 229 0
-48 229 0
-229 230 48 0
-229 228 0
-47 228 0
-228 229 47 0
-55 233 0
-54 233 0
-233 55 54 0
-233 232 0
-53 232 0
-232 233 53 0
-232 231 0
-52 231 0
-231 232 52 0
-60 236 0
-59 236 0
-236 60 59 0
-236 235 0
-58 235 0
-235 236 58 0
-235 234 0
-57 234 0
-234 235 57 0
-65 239 0
-64 239 0
-239 65 64 0
-239 238 0
-63 238 0
-238 239 63 0
-238 237 0
-62 237 0
-237 238 62 0
-70 242 0
-69 242 0
-242 70 69 0
-242 241 0
-68 241 0
-241 242 68 0
-241 240 0
-67 240 0
-240 241 67 0
-75 245 0
-74 245 0
-245 75 74 0
-245 244 0
-73 244 0
-244 245 73 0
-244 243 0
-72 243 0
-243 244 72 0
-80 248 0
-79 248 0
-248 80 79 0
-248 247 0
-78 247 0
-247 248 78 0
-247 246 0
-77 246 0
-246 247 77 0
-85 251 0
-84 251 0
-251 85 84 0
-251 250 0
-83 250 0
-250 251 83 0
-250 249 0
-82 249 0
-249 250 82 0
-90 254 0
-89 254 0
-254 90 89 0
-254 253 0
-88 253 0
-253 254 88 0
-253 252 0
-87 252 0
-252 253 87 0
-95 257 0
-94 257 0
-257 95 94 0
-257 256 0
-93 256 0
-256 257 93 0
-256 255 0
-92 255 0
-255 256 92 0
-100 260 0
-99 260 0
-260 100 99 0
-260 259 0
-98 259 0
-259 260 98 0
-259 258 0
-97 258 0
-258 259 97 0
-105 263 0
-104 263 0
-263 105 104 0
-263 262 0
-103 262 0
-262 263 103 0
-262 261 0
-102 261 0
-261 262 102 0
-110 266 0
-109 266 0
-266 110 109 0
-266 265 0
-108 265 0
-265 266 108 0
-265 264 0
-107 264 0
-264 265 107 0
-115 269 0
-114 269 0
-269 115 114 0
-269 268 0
-113 268 0
-268 269 113 0
-268 267 0
-112 267 0
-267 268 112 0
-120 272 0
-119 272 0
-272 120 119 0
-272 271 0
-118 271 0
-271 272 118 0
-271 270 0
-117 270 0
-270 271 117 0
-125 275 0
-124 275 0
-275 125 124 0
-275 274 0
-123 274 0
-274 275 123 0
-274 273 0
-122 273 0
-273 274 122 0
-130 278 0
-129 278 0
-278 130 129 0
-278 277 0
-128 277 0
-277 278 128 0
-277 276 0
-127 276 0
-276 277 127 0
-135 281 0
-134 281 0
-281 135 134 0
-281 280 0
-133 280 0
-280 281 133 0
-280 279 0
-132 279 0
-279 280 132 0
-140 284 0
-139 284 0
-284 140 139 0
-284 283 0
-138 283 0
-283 284 138 0
-283 282 0
-137 282 0
-282 283 137 0
-145 287 0
-144 287 0
-287 145 144 0
-287 286 0
-143 286 0
-286 287 143 0
-286 285 0
-142 285 0
-285 286 142 0
-150 290 0
-149 290 0
-290 150 149 0
-290 289 0
-148 289 0
-289 290 148 0
-289 288 0
-147 288 0
-288 289 147 0
-155 293 0
-154 293 0
-293 155 154 0
-293 292 0
-153 292 0
-292 293 153 0
-292 291 0
-152 291 0
-291 292 152 0
-160 296 0
-159 296 0
-296 160 159 0
-296 295 0
-158 295 0
-295 296 158 0
-295 294 0
-157 294 0
-294 295 157 0
-165 299 0
-164 299 0
-299 165 164 0
-299 298 0
-163 298 0
-298 299 163 0
-298 297 0
-162 297 0
-297 298 162 0
-170 302 0
-169 302 0
-302 170 169 0
-302 301 0
-168 301 0
-301 302 168 0
-301 300 0
-167 300 0
-300 301 167 0
-175 305 0
-174 305 0
-305 175 174 0
-305 304 0
-173 304 0
-304 305 173 0
-304 303 0
-172 303 0
-303 304 172 0
-180 308 0
-179 308 0
-308 180 179 0
-308 307 0
-178 307 0
-307 308 178 0
-307 306 0
-177 306 0
-306 307 177 0
-185 311 0
-184 311 0
-311 185 184 0
-311 310 0
-183 310 0
-310 311 183 0
-310 309 0
-182 309 0
-309 310 182 0
-190 314 0
-189 314 0
-314 190 189 0
-314 313 0
-188 313 0
-313 314 188 0
-313 312 0
-187 312 0
-312 313 187 0
-195 317 0
-194 317 0
-317 195 194 0
-317 316 0
-193 316 0
-316 317 193 0
-316 315 0
-192 315 0
-315 316 192 0
-6 318 0
-7 318 0
-318 6 7 0
-318 319 0
-8 319 0
-319 318 8 0
-319 320 0
-9 320 0
-320 319 9 0
-11 321 0
-12 321 0
-321 11 12 0
-321 322 0
-13 322 0
-322 321 13 0
-322 323 0
-14 323 0
-323 322 14 0
-16 324 0
-17 324 0
-324 16 17 0
-324 325 0
-18 325 0
-325 324 18 0
-325 326 0
-19 326 0
-326 325 19 0
-21 327 0
-22 327 0
-327 21 22 0
-327 328 0
-23 328 0
-328 327 23 0
-328 329 0
-24 329 0
-329 328 24 0
-26 330 0
-27 330 0
-330 26 27 0
-330 331 0
-28 331 0
-331 330 28 0
-331 332 0
-29 332 0
-332 331 29 0
-31 333 0
-32 333 0
-333 31 32 0
-333 334 0
-33 334 0
-334 333 33 0
-334 335 0
-34 335 0
-335 334 34 0
-36 336 0
-37 336 0
-336 36 37 0
-336 337 0
-38 337 0
-337 336 38 0
-337 338 0
-39 338 0
-338 337 39 0
-41 339 0
-42 339 0
-339 41 42 0
-339 340 0
-43 340 0
-340 339 43 0
-340 341 0
-44 341 0
-341 340 44 0
-46 342 0
-47 342 0
-342 46 47 0
-342 343 0
-48 343 0
-343 342 48 0
-343 344 0
-49 344 0
-344 343 49 0
-51 345 0
-52 345 0
-345 51 52 0
-345 346 0
-53 346 0
-346 345 53 0
-346 347 0
-54 347 0
-347 346 54 0
-56 348 0
-57 348 0
-348 56 57 0
-348 349 0
-58 349 0
-349 348 58 0
-349 350 0
-59 350 0
-350 349 59 0
-61 351 0
-62 351 0
-351 61 62 0
-351 352 0
-63 352 0
-352 351 63 0
-352 353 0
-64 353 0
-353 352 64 0
-66 354 0
-67 354 0
-354 66 67 0
-354 355 0
-68 355 0
-355 354 68 0
-355 356 0
-69 356 0
-356 355 69 0
-71 357 0
-72 357 0
-357 71 72 0
-357 358 0
-73 358 0
-358 357 73 0
-358 359 0
-74 359 0
-359 358 74 0
-76 360 0
-77 360 0
-360 76 77 0
-360 361 0
-78 361 0
-361 360 78 0
-361 362 0
-79 362 0
-362 361 79 0
-81 363 0
-82 363 0
-363 81 82 0
-363 364 0
-83 364 0
-364 363 83 0
-364 365 0
-84 365 0
-365 364 84 0
-86 366 0
-87 366 0
-366 86 87 0
-366 367 0
-88 367 0
-367 366 88 0
-367 368 0
-89 368 0
-368 367 89 0
-91 369 0
-92 369 0
-369 91 92 0
-369 370 0
-93 370 0
-370 369 93 0
-370 371 0
-94 371 0
-371 370 94 0
-96 372 0
-97 372 0
-372 96 97 0
-372 373 0
-98 373 0
-373 372 98 0
-373 374 0
-99 374 0
-374 373 99 0
-101 375 0
-102 375 0
-375 101 102 0
-375 376 0
-103 376 0
-376 375 103 0
-376 377 0
-104 377 0
-377 376 104 0
-106 378 0
-107 378 0
-378 106 107 0
-378 379 0
-108 379 0
-379 378 108 0
-379 380 0
-109 380 0
-380 379 109 0
-111 381 0
-112 381 0
-381 111 112 0
-381 382 0
-113 382 0
-382 381 113 0
-382 383 0
-114 383 0
-383 382 114 0
-116 384 0
-117 384 0
-384 116 117 0
-384 385 0
-118 385 0
-385 384 118 0
-385 386 0
-119 386 0
-386 385 119 0
-121 387 0
-122 387 0
-387 121 122 0
-387 388 0
-123 388 0
-388 387 123 0
-388 389 0
-124 389 0
-389 388 124 0
-126 390 0
-127 390 0
-390 126 127 0
-390 391 0
-128 391 0
-391 390 128 0
-391 392 0
-129 392 0
-392 391 129 0
-131 393 0
-132 393 0
-393 131 132 0
-393 394 0
-133 394 0
-394 393 133 0
-394 395 0
-134 395 0
-395 394 134 0
-136 396 0
-137 396 0
-396 136 137 0
-396 397 0
-138 397 0
-397 396 138 0
-397 398 0
-139 398 0
-398 397 139 0
-141 399 0
-142 399 0
-399 141 142 0
-399 400 0
-143 400 0
-400 399 143 0
-400 401 0
-144 401 0
-401 400 144 0
-146 402 0
-147 402 0
-402 146 147 0
-402 403 0
-148 403 0
-403 402 148 0
-403 404 0
-149 404 0
-404 403 149 0
-151 405 0
-152 405 0
-405 151 152 0
-405 406 0
-153 406 0
-406 405 153 0
-406 407 0
-154 407 0
-407 406 154 0
-156 408 0
-157 408 0
-408 156 157 0
-408 409 0
-158 409 0
-409 408 158 0
-409 410 0
-159 410 0
-410 409 159 0
-161 411 0
-162 411 0
-411 161 162 0
-411 412 0
-163 412 0
-412 411 163 0
-412 413 0
-164 413 0
-413 412 164 0
-166 414 0
-167 414 0
-414 166 167 0
-414 415 0
-168 415 0
-415 414 168 0
-415 416 0
-169 416 0
-416 415 169 0
-171 417 0
-172 417 0
-417 171 172 0
-417 418 0
-173 418 0
-418 417 173 0
-418 419 0
-174 419 0
-419 418 174 0
-176 420 0
-177 420 0
-420 176 177 0
-420 421 0
-178 421 0
-421 420 178 0
-421 422 0
-179 422 0
-422 421 179 0
-181 423 0
-182 423 0
-423 181 182 0
-423 424 0
-183 424 0
-424 423 183 0
-424 425 0
-184 425 0
-425 424 184 0
-186 426 0
-187 426 0
-426 186 187 0
-426 427 0
-188 427 0
-427 426 188 0
-427 428 0
-189 428 0
-428 427 189 0
-191 429 0
-192 429 0
-429 191 192 0
-429 430 0
-193 430 0
-430 429 193 0
-430 431 0
-194 431 0
-431 430 194 0
-196 432 0
-197 432 0
-432 196 197 0
-432 433 0
-198 433 0
-433 432 198 0
-433 434 0
-199 434 0
-434 433 199 0
1 201 0
201 6 0
202 318 0
203 319 0
5 320 0
6 204 0
204 11 0
205 321 0
206 322 0
10 323 0
11 207 0
207 16 0
208 324 0
209 325 0
15 326 0
16 210 0
210 21 0
211 327 0
212 328 0
20 329 0
21 213 0
213 26 0
214 330 0
215 331 0
25 332 0
26 216 0
216 31 0
217 333 0
218 334 0
30 335 0
31 219 0
219 36 0
220 336 0
221 337 0
35 338 0
36 222 0
222 41 0
223 339 0
224 340 0
40 341 0
41 225 0
225 46 0
226 342 0
227 343 0
45 344 0
46 228 0
228 51 0
229 345 0
230 346 0
50 347 0
51 231 0
231 56 0
232 348 0
233 349 0
55 350 0
56 234 0
234 61 0
235 351 0
236 352 0
60 353 0
61 237 0
237 66 0
238 354 0
239 355 0
65 356 0
66 240 0
240 71 0
241 357 0
242 358 0
70 359 0
71 243 0
243 76 0
244 360 0
245 361 0
75 362 0
76 246 0
246 81 0
247 363 0
248 364 0
80 365 0
81 249 0
249 86 0
250 366 0
251 367 0
85 368 0
86 252 0
252 91 0
253 369 0
254 370 0
90 371 0
91 255 0
255 96 0
256 372 0
257 373 0
95 374 0
96 258 0
258 101 0
259 375 0
260 376 0
100 377 0
101 261 0
261 106 0
262 378 0
263 379 0
105 380 0
106 264 0
264 111 0
265 381 0
266 382 0
110 383 0
111 267 0
267 116 0
268 384 0
269 385 0
115 386 0
116 270 0
270 121 0
271 387 0
272 388 0
120 389 0
121 273 0
273 126 0
274 390 0
275 391 0
125 392 0
126 276 0
276 131 0
277 393 0
278 394 0
130 395 0
131 279 0
279 136 0
280 396 0
281 397 0
135 398 0
136 282 0
282 141 0
283 399 0
284 400 0
140 401 0
141 285 0
285 146 0
286 402 0
287 403 0
145 404 0
146 288 0
288 151 0
289 405 0
290 406 0
150 407 0
151 291 0
291 156 0
292 408 0
293 409 0
155 410 0
156 294 0
294 161 0
295 411 0
296 412 0
160 413 0
161 297 0
297 166 0
298 414 0
299 415 0
165 416 0
166 300 0
300 171 0
301 417 0
302 418 0
170 419 0
171 303 0
303 176 0
304 420 0
305 421 0
175 422 0
176 306 0
306 181 0
307 423 0
308 424 0
180 425 0
181 309 0
309 186 0
310 426 0
311 427 0
185 428 0
186 312 0
312 191 0
313 429 0
314 430 0
190 431 0
191 315 0
315 196 0
316 432 0
317 433 0
195 434 0
196 434 0
